TITL S913A  CUKA 45KV 25MA 22C  NI 100793
CELL  1.54184    9.0608   19.0538   16.0943    90.000   110.466    90.000
ZERR 1           0.0003    0.0006    0.0005     0.000     0.003     0.000
LATT   1
SYMM             - X ,    0.50000 + Y ,    0.50000 - Z
SFAC  C  N  P  V H
UNIT    92    4   8   4 160
L.S.     3
FMAP 2
PLAN 30
ACTA
WGHT    0.052700
EXTI    0.002668
FVAR       0.18756
V1      4   0.21987   0.14687   0.21564  11.00000   0.06628   0.04199 =
        0.03149   0.00380   0.01773   0.00180
P1      3   0.17189   0.21778   0.32677  11.00000   0.09103   0.04915 =
        0.05160  -0.00222   0.03547   0.00451
P2      3   0.00849   0.06903   0.20649  11.00000   0.06753   0.06402 =
        0.05492  -0.00337   0.01947  -0.00830
N1      2   0.36756   0.09394   0.27835  11.00000   0.06049   0.04225 =
        0.03763   0.00093   0.01765  -0.00406
C1      1   0.49380   0.04953   0.31706  11.00000   0.06307   0.04322 =
        0.04645   0.00924   0.02184  -0.00118
C2      1   0.50800  -0.01446   0.27416  11.00000   0.06981   0.04179 =
        0.06309   0.00785   0.02649  -0.00105
C3      1   0.63730  -0.05746   0.31412  11.00000   0.08850   0.05487 =
        0.08306   0.01270   0.03627   0.01279
AFIX  43
H3      5   0.64711  -0.09908   0.28632  11.00000  -1.20000
AFIX   0
C4      1   0.75076  -0.04012   0.39347  11.00000   0.08388   0.08704 =
        0.07897   0.03627   0.03115   0.02911
AFIX  43
H4      5   0.83609  -0.06981   0.41908  11.00000  -1.20000
AFIX   0
C5      1   0.73780   0.02111   0.43481  11.00000   0.07542   0.10025 =
        0.04968   0.01909   0.01384   0.01485
AFIX  43
H5      5   0.81549   0.03248   0.48856  11.00000  -1.20000
AFIX   0
C6      1   0.61280   0.06649   0.39910  11.00000   0.06476   0.07117 =
        0.04116   0.01138   0.01802  -0.00108
C7      1   0.38820  -0.03458   0.18582  11.00000   0.07049   0.04764 =
        0.08300  -0.01414   0.02499  -0.00249
AFIX  13
H7      5   0.29901  -0.00223   0.17350  11.00000  -1.20000
AFIX   0
C8      1   0.45300  -0.02719   0.11134  11.00000   0.09676   0.09721 =
        0.06176  -0.01005   0.01812  -0.01021
AFIX 137
H8A     5   0.37370  -0.04064   0.05629  11.00000  -1.50000
H8B     5   0.54344  -0.05696   0.12285  11.00000  -1.50000
H8C     5   0.48293   0.02072   0.10766  11.00000  -1.50000
AFIX   0
C9      1   0.32476  -0.10970   0.18640  11.00000   0.11375   0.06668 =
        0.15186  -0.03557   0.06290  -0.02802
AFIX 137
H9A     5   0.40784  -0.14292   0.19324  11.00000  -1.50000
H9B     5   0.24020  -0.11839   0.13150  11.00000  -1.50000
H9C     5   0.28677  -0.11451   0.23481  11.00000  -1.50000
AFIX   0
C10     1   0.60208   0.13481   0.44398  11.00000   0.07017   0.08815 =
        0.04422  -0.00771   0.00992  -0.00366
AFIX  13
H10     5   0.49371   0.15183   0.41680  11.00000  -1.20000
AFIX   0
C11     1   0.70941   0.18977   0.42594  11.00000   0.13035   0.09967 =
        0.18169  -0.04449   0.07903  -0.03556
AFIX 137
H11A    5   0.81705   0.17480   0.45165  11.00000  -1.50000
H11B    5   0.69632   0.23371   0.45172  11.00000  -1.50000
H11C    5   0.68244   0.19541   0.36309  11.00000  -1.50000
AFIX   0
C12     1   0.63501   0.12783   0.54378  11.00000   0.20237   0.17696 =
        0.04848  -0.00406   0.03202   0.05596
AFIX 137
H12A    5   0.62126   0.17261   0.56742  11.00000  -1.50000
H12B    5   0.74121   0.11196   0.57290  11.00000  -1.50000
H12C    5   0.56318   0.09454   0.55350  11.00000  -1.50000
AFIX   0
C13     1   0.16907   0.17161   0.42578  11.00000   0.11773   0.07649 =
        0.05474  -0.00453   0.04866  -0.00269
AFIX 137
H13A    5   0.26001   0.14186   0.44774  11.00000  -1.50000
H13B    5   0.07537   0.14358   0.41106  11.00000  -1.50000
H13C    5   0.17036   0.20516   0.47053  11.00000  -1.50000
AFIX   0
C14     1   0.31496   0.28778   0.37720  11.00000   0.13845   0.06420 =
        0.08758  -0.02294   0.05593  -0.02322
AFIX 137
H14A    5   0.31116   0.32232   0.33308  11.00000  -1.50000
H14B    5   0.41893   0.26811   0.40053  11.00000  -1.50000
H14C    5   0.28946   0.30945   0.42433  11.00000  -1.50000
AFIX   0
C15     1  -0.00929   0.27049   0.29924  11.00000   0.12858   0.07804 =
        0.11383   0.00146   0.05944   0.03337
AFIX 137
H15A    5  -0.09931   0.24073   0.27364  11.00000  -1.50000
H15B    5  -0.00856   0.30639   0.25753  11.00000  -1.50000
H15C    5  -0.01445   0.29183   0.35219  11.00000  -1.50000
AFIX   0
C16     1   0.06395   0.00468   0.29596  11.00000   0.12062   0.06996 =
        0.08132   0.01239   0.04500  -0.01584
AFIX 137
H16A    5   0.15831  -0.01903   0.29743  11.00000  -1.50000
H16B    5  -0.01948  -0.02888   0.28606  11.00000  -1.50000
H16C    5   0.08223   0.02808   0.35150  11.00000  -1.50000
AFIX   0
C17     1  -0.06161   0.01024   0.11029  11.00000   0.09665   0.10609 =
        0.08111  -0.03332   0.01883  -0.02911
AFIX 137
H17A    5   0.02540  -0.01629   0.10584  11.00000  -1.50000
H17B    5  -0.10780   0.03751   0.05735  11.00000  -1.50000
H17C    5  -0.13909  -0.02125   0.11734  11.00000  -1.50000
AFIX   0
C18     1  -0.18211   0.09906   0.20814  11.00000   0.07699   0.10751 =
        0.14780  -0.02053   0.04538  -0.00838
AFIX 137
H18A    5  -0.22902   0.13044   0.15935  11.00000  -1.50000
H18B    5  -0.16733   0.12310   0.26289  11.00000  -1.50000
H18C    5  -0.25005   0.05940   0.20306  11.00000  -1.50000
AFIX   0
C19     1   0.14095   0.24795   0.12661  11.00000   0.15629   0.07590 =
        0.07268   0.03606   0.05886   0.03507
AFIX  43
H19     5   0.09470   0.28725   0.14156  11.00000  -1.20000
AFIX   0
C20     1   0.06048   0.19102   0.07781  11.00000   0.10266   0.12956 =
        0.05991   0.05265   0.01432   0.00774
AFIX  43
H20     5  -0.04831   0.18550   0.05448  11.00000  -1.20000
AFIX   0
C21     1   0.17163   0.14378   0.07009  11.00000   0.14558   0.07032 =
        0.03381   0.00365   0.02964  -0.00467
AFIX  43
H21     5   0.15091   0.10070   0.04115  11.00000  -1.20000
AFIX   0
C22     1   0.31871   0.17249   0.11325  11.00000   0.10876   0.08093 =
        0.06221   0.01582   0.05034   0.00437
AFIX  43
H22     5   0.41449   0.15221   0.11759  11.00000  -1.20000
AFIX   0
C23     1   0.29945   0.23690   0.14919  11.00000   0.14759   0.06098 =
        0.06386   0.01375   0.04356  -0.02109
AFIX  43
H23     5   0.37943   0.26684   0.18236  11.00000  -1.20000
HKLF 4 1  1.00000 0.00000 0.00000 0.00000-1.00000 0.00000-1.00000 0.00000-1.0000
END  
     
WGHT      0.0527      0.0000 
Q1    1   0.1356  0.1318  0.1610  11.00000  0.05    0.22
Q2    1   0.5927  0.0956  0.4187  11.00000  0.05    0.22
Q3    1   0.3098  0.1278  0.2612  11.00000  0.05    0.22
Q4    1   0.0484  0.1554  0.2008  11.00000  0.05    0.22
Q5    1   0.1839  0.0689  0.2210  11.00000  0.05    0.20
Q6    1  -0.0483  0.0403  0.1594  11.00000  0.05    0.19
Q7    1   0.3370  0.1137  0.3212  11.00000  0.05    0.19
Q8    1   0.1938  0.1812  0.2811  11.00000  0.05    0.18
Q9    1   0.2546  0.1812  0.2812  11.00000  0.05    0.18
Q10   1   0.5557  0.0496  0.3587  11.00000  0.05    0.18
Q11   1   0.0529  0.2184  0.1207  11.00000  0.05    0.18
Q12   1  -0.2296  0.1487  0.1189  11.00000  0.05    0.17
Q13   1   0.3844  0.1210  0.2412  11.00000  0.05    0.17
Q14   1   0.6641 -0.0530  0.3588  11.00000  0.05    0.17
Q15   1   0.0006  0.1998  0.0800  11.00000  0.05    0.17
Q16   1  -0.2072  0.1475  0.1989  11.00000  0.05    0.16
Q17   1   0.4539 -0.0276  0.2413  11.00000  0.05    0.16
Q18   1   0.4515  0.2680  0.4613  11.00000  0.05    0.16
Q19   1   0.5741  0.1875  0.5387  11.00000  0.05    0.15
Q20   1   0.3136  0.0738  0.2612  11.00000  0.05    0.15
Q21   1   0.4999  0.0117  0.2987  11.00000  0.05    0.15
Q22   1   0.5222  0.0436  0.0987  11.00000  0.05    0.15
Q23   1  -0.0460  0.1522  0.0393  11.00000  0.05    0.15
Q24   1   0.7442  0.1345  0.5388  11.00000  0.05    0.14
Q25   1   0.0865  0.1504  0.1009  11.00000  0.05    0.14
Q26   1   0.3572 -0.0741  0.1812  11.00000  0.05    0.14
Q27   1  -0.0405  0.0996  0.1794  11.00000  0.05    0.14
Q28   1  -0.1209  0.0824 -0.0209  11.00000  0.05    0.13
Q29   1   0.7575  0.1501  0.4789  11.00000  0.05    0.13
Q30   1   0.7555  0.0845  0.5588  11.00000  0.05    0.13
